# Solution for model GasLib-40
# Objective value = 1.0267587760688246e+01
loadshed[innode_1] 0
loadshed[innode_2] 0
loadshed[innode_3] 0
loadshed[innode_4] 0
loadshed[innode_5] 0
loadshed[innode_6] 0
loadshed[innode_7] 0
loadshed[innode_8] 0
loadshed[source_1] -2.4692415293851711e-01
loadshed[source_2] 1.2690089217868561e-01
loadshed[source_3] 1.8497088375735371e-01
loadshed[sink_1] 0
loadshed[sink_2] 0
loadshed[sink_3] 0
loadshed[sink_4] 0
loadshed[sink_5] 0
loadshed[sink_6] 0
loadshed[sink_7] 0
loadshed[sink_8] 0
loadshed[sink_9] 0
loadshed[sink_10] 0
loadshed[sink_11] 0
loadshed[sink_12] 6.2782702230959964e-01
loadshed[sink_13] 0
loadshed[sink_14] 0
loadshed[sink_15] 0
loadshed[sink_16] 0
loadshed[sink_17] 0
loadshed[sink_18] 0
loadshed[sink_19] 0
loadshed[sink_20] 0
loadshed[sink_21] 0
loadshed[sink_22] 0
loadshed[sink_23] 0
loadshed[sink_24] 0
loadshed[sink_25] 0
loadshed[sink_26] 0
loadshed[sink_27] 0
loadshed[sink_28] 0
loadshed[sink_29] 0
flow[source_1,sink_3] 1.9712658570587041e+02
flow[innode_1,sink_16] 1.6354166666666970e+01
flow[innode_6,sink_13] -1.4369012717109968e+01
flow[sink_13,sink_14] -3.0723179383776635e+01
flow[sink_14,sink_10] -47.0773460504433
flow[sink_25,sink_26] 1.7178597461914089e+02
flow[sink_26,sink_9] 1.2204390040394537e+02
flow[sink_9,sink_18] 1.0568973373727870e+02
flow[sink_26,sink_4] 3.3387907548528865e+01
flow[sink_4,sink_20] -1.7216370342257996e+01
flow[sink_18,sink_6] 8.9335567070612029e+01
flow[sink_25,innode_8] -1.6441825237253403e+02
flow[sink_6,sink_7] 4.0273067070611432e+01
flow[sink_6,sink_22] 3.2708333333333641e+01
flow[sink_7,sink_24] 3.8794912239311756e+01
flow[sink_22,sink_1] 1.6354166666666970e+01
flow[sink_24,sink_21] 2.2440745572645092e+01
flow[sink_21,sink_12] 6.0865789059784223e+00
flow[sink_7,sink_5] -1.4876011835366938e+01
flow[sink_5,sink_17] -3.1230178502033482e+01
flow[sink_17,sink_4] -3.4250111224120189e+01
flow[sink_17,sink_8] -1.3334233944579987e+01
flow[sink_3,sink_23] 16.3541666666697
flow[sink_8,sink_20] -2.9688400611246657e+01
flow[sink_25,sink_20] 6.3258937620171366e+01
flow[sink_25,sink_15] -7.2611813816333665e+01
flow[sink_15,sink_29] 0
flow[sink_29,sink_28] 1.6354166666667879e+01
flow[sink_29,sink_2] 1.0532014714966701e+02
flow[sink_2,sink_15] 8.8965980483000337e+01
flow[sink_29,innode_7] -1.3802848048300154e+02
flow[innode_4,sink_19] 5.0347648747701236e+01
flow[sink_19,innode_3] 4.6915839066546916e+01
flow[innode_4,innode_5] 7.8500530636075453e+01
flow[sink_27,innode_5] -7.8500530636075453e+01
flow[sink_27,sink_19] 6.2146363969408782e+01
flow[sink_10,sink_11] 3.2708333333333641e+01
flow[sink_10,innode_2] -4.9224006983896693e+01
flow[sink_10,innode_3] -4.6915839066546916e+01
flow[innode_6,sink_25] 1.4369012717109968e+01
flow[sink_11,innode_1] 1.6354166666666970e+01
flow[sink_19,innode_2] 4.9224006983896693e+01
flow[source_3,innode_4] 1.2884817938377668e+02
flow[source_2,innode_7] 1.3802848048300154e+02
flow[sink_3,innode_8] 1.6441825237253403e+02
pressure[innode_1] 7.6220145084180729e+01
pressure[innode_2] 7.8973538462690442e+01
pressure[innode_3] 7.8869648649720020e+01
pressure[innode_4] 81.01325
pressure[innode_5] 80.9592531956827
pressure[innode_6] 74.0109583146976
pressure[innode_7] 81.01325
pressure[innode_8] 8.0354331129070516e+01
pressure[source_1] 81.01325
pressure[source_2] 81.01325
pressure[source_3] 81.01325
pressure[sink_1] 4.6296757766459493e+01
pressure[sink_2] 7.4653650684734373e+01
pressure[sink_3] 8.0354331129070516e+01
pressure[sink_4] 5.7667148029097511e+01
pressure[sink_5] 5.4031799154174806e+01
pressure[sink_6] 4.8397835376846864e+01
pressure[sink_7] 4.7844982162430078e+01
pressure[sink_8] 5.6861357002579332e+01
pressure[sink_9] 5.4607530580767452e+01
pressure[sink_10] 7.6371846391784274e+01
pressure[sink_11] 7.6220145084180729e+01
pressure[sink_12] 1.0132500000000002e+00
pressure[sink_13] 7.4090172280521926e+01
pressure[sink_14] 7.4145154027065416e+01
pressure[sink_15] 7.4363196366243642e+01
pressure[sink_16] 7.5198495249363049e+01
pressure[sink_17] 5.6358221714362386e+01
pressure[sink_18] 5.0783361004570594e+01
pressure[sink_19] 7.8973538462690442e+01
pressure[sink_20] 5.8930221009158636e+01
pressure[sink_21] 3.1791878945082206e+00
pressure[sink_22] 47.3605269088145
pressure[sink_23] 8.0189613117410730e+01
pressure[sink_24] 3.4276983017860156e+00
pressure[sink_25] 74.0109583146976
pressure[sink_26] 6.1912173006579778e+01
pressure[sink_27] 8.0307843844787172e+01
pressure[sink_28] 7.7026246599413582e+01
pressure[sink_29] 7.7321528873030758e+01
interdiction[source_1,sink_3] 0
interdiction[innode_1,sink_16] 0
interdiction[innode_6,sink_13] 0
interdiction[sink_13,sink_14] 0
interdiction[sink_14,sink_10] 0
interdiction[sink_25,sink_26] 0
interdiction[sink_26,sink_9] 0
interdiction[sink_9,sink_18] 0
interdiction[sink_26,sink_4] 0
interdiction[sink_4,sink_20] 0
interdiction[sink_18,sink_6] 0
interdiction[sink_25,innode_8] 0
interdiction[sink_6,sink_7] 0
interdiction[sink_6,sink_22] 0
interdiction[sink_7,sink_24] 0
interdiction[sink_22,sink_1] 0
interdiction[sink_24,sink_21] 0
interdiction[sink_21,sink_12] 0
interdiction[sink_7,sink_5] 0
interdiction[sink_5,sink_17] 0
interdiction[sink_17,sink_4] 0
interdiction[sink_17,sink_8] 0
interdiction[sink_3,sink_23] 0
interdiction[sink_8,sink_20] 0
interdiction[sink_25,sink_20] 0
interdiction[sink_25,sink_15] 0
interdiction[sink_15,sink_29] 1
interdiction[sink_29,sink_28] 0
interdiction[sink_29,sink_2] 0
interdiction[sink_2,sink_15] 0
interdiction[sink_29,innode_7] 0
interdiction[innode_4,sink_19] 0
interdiction[sink_19,innode_3] 0
interdiction[innode_4,innode_5] 0
interdiction[sink_27,innode_5] 0
interdiction[sink_27,sink_19] 0
interdiction[sink_10,sink_11] 0
interdiction[sink_10,innode_2] 0
interdiction[sink_10,innode_3] 0
interdiction[innode_6,sink_25] 0
interdiction[sink_11,innode_1] 0
interdiction[sink_19,innode_2] 0
interdiction[source_3,innode_4] 0
interdiction[source_2,innode_7] 0
interdiction[sink_3,innode_8] 0
WCcheckFlow[source_1,sink_3] 39
WCcheckFlow[innode_1,sink_16] 1
WCcheckFlow[innode_6,sink_13] 13
WCcheckFlow[sink_13,sink_14] 12
WCcheckFlow[sink_14,sink_10] 11
WCcheckFlow[sink_25,sink_26] 15
WCcheckFlow[sink_26,sink_9] 12
WCcheckFlow[sink_9,sink_18] 11
WCcheckFlow[sink_26,sink_4] 2
WCcheckFlow[sink_4,sink_20] 1
WCcheckFlow[sink_18,sink_6] 10
WCcheckFlow[sink_25,innode_8] -36
WCcheckFlow[sink_6,sink_7] 7
WCcheckFlow[sink_6,sink_22] 2
WCcheckFlow[sink_7,sink_24] 3
WCcheckFlow[sink_22,sink_1] 1
WCcheckFlow[sink_24,sink_21] 2
WCcheckFlow[sink_21,sink_12] 1
WCcheckFlow[sink_7,sink_5] 3
WCcheckFlow[sink_5,sink_17] 2
WCcheckFlow[sink_17,sink_4] 0
WCcheckFlow[sink_17,sink_8] 1
WCcheckFlow[sink_3,sink_23] 1
WCcheckFlow[sink_8,sink_20] 0
WCcheckFlow[sink_25,sink_20] 0
WCcheckFlow[sink_25,sink_15] 6
WCcheckFlow[sink_15,sink_29] 0
WCcheckFlow[sink_29,sink_28] 1
WCcheckFlow[sink_29,sink_2] -4
WCcheckFlow[sink_2,sink_15] -5
WCcheckFlow[sink_29,innode_7] 2
WCcheckFlow[innode_4,sink_19] -4
WCcheckFlow[sink_19,innode_3] -5
WCcheckFlow[innode_4,innode_5] 2
WCcheckFlow[sink_27,innode_5] -1
WCcheckFlow[sink_27,sink_19] 0
WCcheckFlow[sink_10,sink_11] 3
WCcheckFlow[sink_10,innode_2] 1
WCcheckFlow[sink_10,innode_3] 6
WCcheckFlow[innode_6,sink_25] -14
WCcheckFlow[sink_11,innode_1] 2
WCcheckFlow[sink_19,innode_2] 0
WCcheckFlow[source_3,innode_4] -1
WCcheckFlow[source_2,innode_7] -1
WCcheckFlow[sink_3,innode_8] 37
